
Log started (V12.10.0.0) Thu Apr  8 06:28:39 2021


Problem 'asset.lp' read.
Read time = 0.00 sec. (0.08 ticks)
New value for default parallel thread count: 1
New value for time limit in seconds: 200
Version identifier: 12.10.0.0 | 2019-11-26 | 843d4de
CPXPARAM_Threads                                 1
CPXPARAM_TimeLimit                               200
Found incumbent of value -0.888577 after 0.00 sec. (0.04 ticks)
Tried aggregator 3 times.
MIP Presolve eliminated 215 rows and 100 columns.
MIP Presolve modified 796 coefficients.
Aggregator did 255 substitutions.
Reduced MIP has 333 rows, 373 columns, and 1468 nonzeros.
Reduced MIP has 313 binaries, 39 generals, 0 SOSs, and 0 indicators.
Presolve time = 0.00 sec. (3.65 ticks)
Probing fixed 10 vars, tightened 11 bounds.
Probing time = 0.00 sec. (1.25 ticks)
Cover probing fixed 0 vars, tightened 11 bounds.
Tried aggregator 1 time.
Detecting symmetries...
MIP Presolve eliminated 35 rows and 33 columns.
MIP Presolve modified 138 coefficients.
Reduced MIP has 298 rows, 340 columns, and 1310 nonzeros.
Reduced MIP has 291 binaries, 28 generals, 0 SOSs, and 0 indicators.
Presolve time = 0.00 sec. (1.36 ticks)
Probing time = 0.00 sec. (1.06 ticks)
Clique table members: 895.
MIP emphasis: balance optimality and feasibility.
MIP search method: dynamic search.
Parallel mode: none, using 1 thread.
Root relaxation solution time = 0.00 sec. (2.73 ticks)

        Nodes                                         Cuts/
   Node  Left     Objective  IInf  Best Integer    Best Bound    ItCnt     Gap

*     0+    0                           -0.8886      238.3506              --- 
      0     0      156.4072    87       -0.8886      156.4072      273     --- 
      0     0      151.6769    87       -0.8886     Cuts: 108      355     --- 
*     0+    0                           82.1533      151.6769            84.63%
      0     0      145.8010    87       82.1533     Cuts: 106      498   77.47%
*     0+    0                          102.5731      145.8010            42.14%
      0     0      144.4281    87      102.5731      Cuts: 73      597   40.80%
*     0+    0                          108.2747      144.4281            33.39%
      0     0      143.5496    87      108.2747     Cuts: 115      683   32.58%
*     0+    0                          114.4084      143.5496            25.47%
      0     0      141.8469    87      114.4084      Cuts: 83      878   23.98%
Detecting symmetries...
      0     0      139.4857    87      114.4084      Cuts: 85      972   21.92%
      0     0      138.8125    87      114.4084      Cuts: 83     1031   21.33%
      0     0      137.6882    87      114.4084      Cuts: 81     1156   20.35%
      0     0      137.0087    87      114.4084      Cuts: 75     1219   19.75%
      0     0      136.8365    87      114.4084      Cuts: 52     1254   19.60%
      0     0      136.7139    87      114.4084      Cuts: 86     1368   19.50%
      0     0      136.4255    87      114.4084      Cuts: 65     1407   19.24%
*     0+    0                          115.0811      136.4255            18.55%
      0     0      136.3806    87      115.0811      Cuts: 52     1433   18.51%
      0     0      136.1972    87      115.0811      Cuts: 50     1475   18.35%
*     0+    0                          117.9056      136.1972            15.51%
      0     0      136.0383    87      117.9056      Cuts: 46     1526   15.38%
      0     0      135.9512    87      117.9056     Cuts: 114     1583   15.31%
      0     0      135.9498    87      117.9056      Cuts: 29     1608   15.30%
*     0+    0                          117.9060      135.9498            15.30%
      0     0      135.8991    87      117.9060      Cuts: 16     1634   15.26%
      0     0      135.8101    87      117.9060      Cuts: 73     1684   15.19%
      0     0      135.7054    87      117.9060      Cuts: 37     1732   15.10%
      0     0      135.6770    87      117.9060     Cuts: 123     1775   15.07%
*     0+    0                          119.5633      135.6770            13.48%
      0     0        cutoff            119.5633      135.6770     1775   13.48%
Detecting symmetries...
      0     2      135.6770    71      119.5633      135.6698     1775   13.47%
Elapsed time = 0.16 sec. (139.81 ticks, tree = 0.01 MB, solutions = 8)
*   120+   78                          120.2049      133.9933            11.47%
*   250+   63                          123.9941      133.1150             7.36%
*   250+   63                          123.9953      133.1150             7.35%
*   260+   65                          123.9957      133.1150             7.35%
*   280+   58                          126.0027      133.1142             5.64%
*   280+   58                          126.0034      133.1142             5.64%
*   310+   70                          126.0039      133.1109             5.64%
*   310+   69                          126.0048      133.1109             5.64%
    338    59        cutoff            126.0048      131.9716    10110    4.74%

Clique cuts applied:  4
Cover cuts applied:  6
Implied bound cuts applied:  110
Flow cuts applied:  10
Mixed integer rounding cuts applied:  19
Zero-half cuts applied:  42

Root node processing (before b&c):
  Real time             =    0.16 sec. (139.89 ticks)
Sequential b&c:
  Real time             =    0.27 sec. (295.18 ticks)
                          ------------
Total (root+branch&cut) =    0.43 sec. (435.08 ticks)

Solution pool: 17 solutions saved.

MIP - Integer optimal, tolerance (0.0001/1e-06):  Objective =  1.2600484096e+02
Current MIP best bound =  1.2600568978e+02 (gap = 0.000848818, 0.00%)
Solution time =    0.43 sec.  Iterations = 12351  Nodes = 414 (4)
Deterministic time = 435.08 ticks  (1009.97 ticks/sec)


Incumbent solution
Variable Name           Solution Value
F                           145.000000
f1                            0.915159
f2                           18.080000
y59                           1.000000
y64                           1.000000
y79                           1.000000
y114                          1.000000
y134                          1.000000
y187                          1.000000
y129                          1.000000
y10                           1.000000
y22                           1.000000
y5                            1.000000
s16                           6.000000
s37                           6.000000
s58                           6.000000
s59                           6.285608
s60                           6.000000
s64                           6.608232
s70                           6.000000
s89                           6.000000
s90                           6.000000
s100                          6.000000
s111                          6.000000
s116                          6.000000
s126                          6.000000
s131                          6.000000
s148                          6.000000
s156                          6.000000
s79                           6.390413
s84                           6.490000
s114                          7.183124
s134                          6.835492
s77                           6.580000
s7                            6.660000
s187                          7.603658
s129                          7.679749
s10                           7.582807
s66                           7.100000
s172                          7.120000
s22                           7.819050
s5                            7.966979
s143                          7.200000
x167x79x1                     1.000000
x135x114x1                    1.000000
x145x187x1                    1.000000
x153x10x1                     2.000000
x188x79x1                     1.000000
x162x59x2                     1.000000
x135x114x2                    1.000000
x186x59x2                     1.000000
x43x64x2                      1.000000
x43x134x2                     1.000000
x162x64x3                     1.000000
x145x129x3                    1.000000
x188x134x3                    1.000000
x59x0x2                       1.000000
x59x187x2                     1.000000
x64x22x2                      1.000000
x64x22x3                      1.000000
x79x129x1                     1.000000
x79x5x1                       1.000000
x114x0x1                      1.000000
x114x0x2                      1.000000
x134x0x2                      1.000000
x134x5x3                      1.000000
x187x0x1                      1.000000
x187x0x2                      1.000000
x129x0x1                      1.000000
x129x0x3                      1.000000
x10x0x1                       2.000000
x22x0x2                       1.000000
x22x0x3                       1.000000
x5x0x1                        1.000000
x5x0x3                        1.000000
s167                          4.597744
z167z79z1                     1.000000
z167z10z1                     1.000000
z167z66z1                     1.000000
s162                          4.925932
z162z59z2                     1.000000
z162z64z3                     1.000000
z162z84z2                     1.000000
z162z77z2                     1.000000
z162z7z3                      1.000000
z162z172z3                    1.000000
s135                          5.706539
z135z114z1                    1.000000
z135z114z2                    1.000000
s145                          5.925328
z145z187z1                    1.000000
z145z129z3                    1.000000
s153                          5.950000
z153z10z1                     1.000000
s186                          4.690240
z186z59z2                     1.000000
z186z84z2                     1.000000
z186z77z2                     1.000000
s43                           4.635740
z43z64z2                      1.000000
z43z134z2                     1.000000
s188                          4.725410
z188z79z1                     1.000000
z188z134z3                    1.000000
z188z7z3                      1.000000
z188z10z1                     1.000000
z188z66z1                     1.000000
z188z172z3                    1.000000
z59z187z2                     1.000000
z64z22z2                      1.000000
z64z22z3                      1.000000
z79z129z1                     1.000000
z79z5z1                       1.000000
z134z5z3                      1.000000
All other variables in the range 1-730 are 0.
